59, 2644
2698, 642
4452, 750
1075, 895
1133, 501
1410, 836
4599, 637
5804, 622
3558, 548
5588, 654
4295, 955
2356, 742
2125, 633
4076, 924
1873, 595
5436, 897
5042, 801
2857, 999
5101, 679
3321, 751
3257, 709
3262, 863
4285, 936
2883, 750
3234, 507
1883, 538
1959, 917
4234, 981
2874, 775
2087, 637
5498, 677
1090, 605
1134, 682
1682, 799
4713, 842
4367, 924
2108, 886
5064, 940
3976, 748
2419, 860
1329, 872
1086, 994
2649, 827
2547, 532
1223, 888
1607, 632
5035, 857
4021, 855
2093, 716
3713, 907
2968, 802
3210, 623
1744, 993
4401, 780
2400, 974
1928, 845
5232, 674
5364, 537
4896, 975
1868, 844